unsat
(define-fun f ((x (_ BitVec 64))) (_ BitVec 64) (let ((_let_1 (shesh x))) (let ((_let_2 (smol (bvnot _let_1)))) (let ((_let_3 (bvand #b0000000000000000000000000000000000000000000000000000000000000001 _let_1))) (im (bvand #b0000000000000000000000000000000000000000000000000000000000000001 (bvnot x)) (im _let_3 x _let_2) (im _let_3 _let_2 (bvxor #b0000000000000000000000000000000000000000000000000000000000000001 (bvadd #b0000000000000000000000000000000000000000000000000000000000000001 x))))))))
221.77user 0.19system 3:41.98elapsed 99%CPU (0avgtext+0avgdata 312760maxresident)k
120inputs+8outputs (0major+81734minor)pagefaults 0swaps
